
Gurobi 9.5.1 (linux64) logging started Fri Mar 18 10:59:49 2022

Set parameter LogFile to value "../results/logs/log_2022_03_18_10_59.csv_33_250.log"
Set parameter LazyConstraints to value 1
Gurobi Optimizer version 9.5.1 build v9.5.1rc2 (linux64)
Thread count: 8 physical cores, 8 logical processors, using up to 8 threads
Optimize a model with 8255 rows, 27764 columns and 30390 nonzeros
Model fingerprint: 0xba32840f
Variable types: 0 continuous, 27764 integer (27764 binary)
Coefficient statistics:
  Matrix range     [1e+00, 1e+00]
  Objective range  [1e+00, 1e+00]
  Bounds range     [1e+00, 1e+00]
  RHS range        [1e+00, 2e+02]
Found heuristic solution: objective 13882.000000

Explored 0 nodes (0 simplex iterations) in 0.00 seconds (0.00 work units)
Thread count was 1 (of 8 available processors)

Solution count 1: 13882 

Optimal solution found (tolerance 1.00e-04)
Best objective 1.388200000000e+04, best bound 1.388200000000e+04, gap 0.0000%

User-callback calls 21, time in user-callback 0.00 sec

Gurobi 9.5.1 (linux64) logging started Fri Mar 18 11:00:51 2022

Set parameter LogFile to value "../results/logs/log_2022_03_18_10_59.csv_33_250.log"
Set parameter LazyConstraints to value 1
Gurobi Optimizer version 9.5.1 build v9.5.1rc2 (linux64)
Thread count: 8 physical cores, 8 logical processors, using up to 8 threads
Optimize a model with 8255 rows, 27764 columns and 30390 nonzeros
Model fingerprint: 0xba32840f
Variable types: 0 continuous, 27764 integer (27764 binary)
Coefficient statistics:
  Matrix range     [1e+00, 1e+00]
  Objective range  [1e+00, 1e+00]
  Bounds range     [1e+00, 1e+00]
  RHS range        [1e+00, 2e+02]
Found heuristic solution: objective 13882.000000

Explored 0 nodes (0 simplex iterations) in 0.00 seconds (0.00 work units)
Thread count was 1 (of 8 available processors)

Solution count 1: 13882 

Optimal solution found (tolerance 1.00e-04)
Best objective 1.388200000000e+04, best bound 1.388200000000e+04, gap 0.0000%

User-callback calls 21, time in user-callback 0.00 sec

Gurobi 9.5.1 (linux64) logging started Fri Mar 18 11:01:58 2022

Set parameter LogFile to value "../results/logs/log_2022_03_18_10_59.csv_33_250.log"
Set parameter LazyConstraints to value 1
Gurobi Optimizer version 9.5.1 build v9.5.1rc2 (linux64)
Thread count: 8 physical cores, 8 logical processors, using up to 8 threads
Optimize a model with 8255 rows, 27764 columns and 30390 nonzeros
Model fingerprint: 0xba32840f
Variable types: 0 continuous, 27764 integer (27764 binary)
Coefficient statistics:
  Matrix range     [1e+00, 1e+00]
  Objective range  [1e+00, 1e+00]
  Bounds range     [1e+00, 1e+00]
  RHS range        [1e+00, 2e+02]
Found heuristic solution: objective 13882.000000

Explored 0 nodes (0 simplex iterations) in 0.00 seconds (0.00 work units)
Thread count was 1 (of 8 available processors)

Solution count 1: 13882 

Optimal solution found (tolerance 1.00e-04)
Best objective 1.388200000000e+04, best bound 1.388200000000e+04, gap 0.0000%

User-callback calls 21, time in user-callback 0.00 sec

Gurobi 9.5.1 (linux64) logging started Fri Mar 18 11:03:11 2022

Set parameter LogFile to value "../results/logs/log_2022_03_18_10_59.csv_33_250.log"
Set parameter LazyConstraints to value 1
Gurobi Optimizer version 9.5.1 build v9.5.1rc2 (linux64)
Thread count: 8 physical cores, 8 logical processors, using up to 8 threads
Optimize a model with 8255 rows, 27764 columns and 30390 nonzeros
Model fingerprint: 0xba32840f
Variable types: 0 continuous, 27764 integer (27764 binary)
Coefficient statistics:
  Matrix range     [1e+00, 1e+00]
  Objective range  [1e+00, 1e+00]
  Bounds range     [1e+00, 1e+00]
  RHS range        [1e+00, 2e+02]
Found heuristic solution: objective 13882.000000

Explored 0 nodes (0 simplex iterations) in 0.00 seconds (0.00 work units)
Thread count was 1 (of 8 available processors)

Solution count 1: 13882 

Optimal solution found (tolerance 1.00e-04)
Best objective 1.388200000000e+04, best bound 1.388200000000e+04, gap 0.0000%

User-callback calls 21, time in user-callback 0.00 sec

Gurobi 9.5.1 (linux64) logging started Fri Mar 18 11:14:21 2022

Set parameter LogFile to value "../results/logs/log_2022_03_18_10_59.csv_33_250.log"
Set parameter LazyConstraints to value 1
Gurobi Optimizer version 9.5.1 build v9.5.1rc2 (linux64)
Thread count: 8 physical cores, 8 logical processors, using up to 8 threads
Optimize a model with 8255 rows, 27764 columns and 30390 nonzeros
Model fingerprint: 0x94bb6cf5
Variable types: 13882 continuous, 13882 integer (13882 binary)
Coefficient statistics:
  Matrix range     [1e+00, 1e+00]
  Objective range  [1e+00, 1e+00]
  Bounds range     [1e+00, 1e+00]
  RHS range        [1e+00, 2e+02]
Found heuristic solution: objective 13882.000000

Explored 0 nodes (0 simplex iterations) in 0.00 seconds (0.00 work units)
Thread count was 1 (of 8 available processors)

Solution count 1: 13882 

Optimal solution found (tolerance 1.00e-04)
Best objective 1.388200000000e+04, best bound 1.388200000000e+04, gap 0.0000%

User-callback calls 21, time in user-callback 0.00 sec

Gurobi 9.5.1 (linux64) logging started Fri Mar 18 11:15:22 2022

Set parameter LogFile to value "../results/logs/log_2022_03_18_10_59.csv_33_250.log"
Set parameter LazyConstraints to value 1
Gurobi Optimizer version 9.5.1 build v9.5.1rc2 (linux64)
Thread count: 8 physical cores, 8 logical processors, using up to 8 threads
Optimize a model with 12710 rows, 27764 columns and 43755 nonzeros
Model fingerprint: 0xfde1c4a9
Variable types: 0 continuous, 27764 integer (27764 binary)
Coefficient statistics:
  Matrix range     [1e+00, 1e+00]
  Objective range  [1e+00, 1e+00]
  Bounds range     [1e+00, 1e+00]
  RHS range        [1e+00, 2e+02]
Found heuristic solution: objective 13748.000000
Found heuristic solution: objective 13761.000000
Found heuristic solution: objective 13854.000000
Presolve time: 0.03s
Presolved: 12710 rows, 27764 columns, 43755 nonzeros
Extracted 4455 lazy constraints
Variable types: 0 continuous, 27764 integer (27764 binary)
Found heuristic solution: objective 13882.000000

Explored 0 nodes (0 simplex iterations) in 0.04 seconds (0.04 work units)
Thread count was 8 (of 8 available processors)

Solution count 4: 13882 13854 13761 13748 

Optimal solution found (tolerance 1.00e-04)
Best objective 1.388200000000e+04, best bound 1.388200000000e+04, gap 0.0000%

User-callback calls 95, time in user-callback 0.00 sec
